Maximize
  - 15 x0 + 46 x1 - 42 x2 + 0 x3 + 33 x4 - 30 x5 + 19 x6 - 20 x7 + 26 x8
   + 27 x9 + 7 x10 + 4 x11 + 0 x12 - 13 x13 + 43 x14 + 0 x15 + 0 x16
   + 0 x17 + 0 x18 - 31 x19 + 49 x20 - 9 x21 - 6 x22 + 0 x23 - 34 x24
   + 42 x25 + 0 x26 + 32 x27 - 17 x28 + 12 x29 + [ 44 x0 ^2 - 90 x0 * x1
   + 48 x0 * x2 + 54 x0 * x3 - 88 x0 * x4 + 68 x0 * x6 + 90 x0 * x7
   - 8 x0 * x8 - 12 x0 * x9 - 28 x0 * x10 + 96 x0 * x11 - 16 x0 * x13
   + 58 x0 * x14 + 98 x0 * x15 - 88 x0 * x16 - 50 x0 * x17 - 2 x0 * x18
   - 58 x0 * x22 - 90 x0 * x23 + 84 x0 * x24 + 18 x0 * x25 - 40 x0 * x26
   + 44 x0 * x27 - 54 x0 * x28 + 10 x1 ^2 + 72 x1 * x2 - 64 x1 * x3
   + 96 x1 * x4 - 60 x1 * x5 - 14 x1 * x6 + 60 x1 * x9 - 42 x1 * x10
   + 10 x1 * x11 + 74 x1 * x13 + 58 x1 * x15 + 44 x1 * x16 + 44 x1 * x18
   - 14 x1 * x19 - 48 x1 * x22 + 40 x1 * x24 + 80 x1 * x26 + 32 x1 * x27
   + 54 x1 * x29 + 40 x2 ^2 - 62 x2 * x3 - 32 x2 * x4 - 66 x2 * x6
   - 10 x2 * x8 + 34 x2 * x9 + 72 x2 * x10 - 2 x2 * x11 + 42 x2 * x12
   - 20 x2 * x13 + 8 x2 * x15 - 78 x2 * x18 + 34 x2 * x19 - 12 x2 * x20
   + 34 x2 * x21 - 46 x2 * x23 - 24 x2 * x24 - 74 x2 * x25 + 72 x2 * x27
   - 74 x2 * x29 - 30 x3 ^2 - 36 x3 * x4 - 32 x3 * x6 + 70 x3 * x7
   + 82 x3 * x8 - 32 x3 * x9 + 96 x3 * x10 + 12 x3 * x11 + 74 x3 * x12
   + 24 x3 * x13 + 22 x3 * x14 - 90 x3 * x17 - 82 x3 * x18 + 20 x3 * x19
   - 38 x3 * x21 + 58 x3 * x22 - 86 x3 * x24 + 60 x3 * x25 - 74 x3 * x26
   + 26 x3 * x28 - 8 x3 * x29 - 32 x4 * x5 + 12 x4 * x6 + 78 x4 * x8
   + 60 x4 * x12 + 32 x4 * x13 - 14 x4 * x14 + 42 x4 * x15 - 46 x4 * x16
   + 24 x4 * x18 - 64 x4 * x19 - 38 x4 * x21 + 86 x4 * x23 - 22 x4 * x24
   - 98 x4 * x25 + 74 x4 * x26 + 96 x4 * x28 + 34 x4 * x29 + 29 x5 ^2
   - 8 x5 * x6 + 16 x5 * x7 + 68 x5 * x9 + 10 x5 * x12 + 82 x5 * x13
   - 94 x5 * x14 + 6 x5 * x15 + 2 x5 * x17 + 94 x5 * x19 + 26 x5 * x20
   - 46 x5 * x21 + 62 x5 * x23 + 22 x5 * x24 + 58 x5 * x25 + 78 x5 * x26
   - 46 x5 * x27 + 54 x5 * x29 + 10 x6 * x7 + 16 x6 * x8 + 74 x6 * x9
   + 18 x6 * x11 - 18 x6 * x14 + 34 x6 * x15 + 38 x6 * x17 + 86 x6 * x18
   + 66 x6 * x19 - 44 x6 * x20 + 24 x6 * x21 + 12 x6 * x22 + 36 x6 * x23
   + 96 x6 * x25 + 52 x6 * x26 - 78 x6 * x27 + 48 x6 * x28 + 92 x6 * x29
   + 38 x7 * x8 + 58 x7 * x9 + 18 x7 * x10 - 4 x7 * x12 + 4 x7 * x13
   + 44 x7 * x14 + 98 x7 * x15 + 28 x7 * x16 + 12 x7 * x18 + 58 x7 * x19
   - 4 x7 * x20 + 26 x7 * x23 + 36 x7 * x24 - 38 x7 * x25 + 76 x7 * x28
   - 45 x8 ^2 + 98 x8 * x9 - 82 x8 * x10 + 34 x8 * x11 - 66 x8 * x12
   + 4 x8 * x13 - 40 x8 * x14 - 50 x8 * x15 - 60 x8 * x16 - 50 x8 * x18
   - 16 x8 * x19 - 80 x8 * x20 - 24 x8 * x21 - 36 x8 * x22 - 96 x8 * x24
   + 70 x8 * x25 - 16 x8 * x27 - 2 x8 * x28 + 40 x8 * x29 + 43 x9 ^2
   + 36 x9 * x10 - 38 x9 * x13 - 12 x9 * x14 - 82 x9 * x15 + 50 x9 * x16
   + 4 x9 * x19 - 46 x9 * x20 + 88 x9 * x21 - 88 x9 * x22 - 22 x9 * x23
   + 40 x9 * x24 + 96 x9 * x26 + 54 x9 * x27 - 8 x10 ^2 - 52 x10 * x11
   + 32 x10 * x12 - 84 x10 * x14 - 86 x10 * x15 - 32 x10 * x17
   + 72 x10 * x20 + 20 x10 * x21 - 62 x10 * x22 + 22 x10 * x23
   + 60 x10 * x24 - 92 x10 * x25 - 70 x10 * x28 + 80 x10 * x29 + 34 x11 ^2
   + 54 x11 * x13 + 80 x11 * x14 - 16 x11 * x15 + 62 x11 * x16
   + 62 x11 * x17 + 26 x11 * x19 + 58 x11 * x20 - 28 x11 * x21
   + 66 x11 * x22 - 84 x11 * x23 + 92 x11 * x27 - 34 x11 * x28
   + 54 x11 * x29 - 31 x12 ^2 + 2 x12 * x14 + 34 x12 * x15 + 88 x12 * x16
   + 60 x12 * x17 - 36 x12 * x18 + 68 x12 * x19 - 38 x12 * x20
   - 22 x12 * x21 + 92 x12 * x22 + 92 x12 * x23 + 58 x12 * x25
   + 56 x12 * x26 - 16 x12 * x27 - 88 x12 * x29 + x13 ^2 - 98 x13 * x14
   + 26 x13 * x17 - 34 x13 * x18 + 28 x13 * x19 + 36 x13 * x22
   - 82 x13 * x23 + 28 x13 * x24 + 6 x13 * x28 - 72 x13 * x29
   + 68 x14 * x15 - 86 x14 * x16 - 22 x14 * x17 - 60 x14 * x18
   + 88 x14 * x19 - 88 x14 * x20 - 96 x14 * x22 + 16 x14 * x23
   + 4 x14 * x25 + 14 x14 * x26 - 16 x14 * x27 + 78 x14 * x28
   - 84 x14 * x29 - 6 x15 * x17 + 98 x15 * x22 - 10 x15 * x23 + 2 x15 * x24
   + 6 x15 * x26 + 20 x15 * x27 - 45 x16 ^2 + 76 x16 * x17 + 88 x16 * x18
   - 66 x16 * x19 - 42 x16 * x20 + 22 x16 * x21 + 38 x16 * x22
   - 60 x16 * x24 - 88 x16 * x26 + 96 x16 * x27 + 18 x16 * x28
   + 26 x16 * x29 - 28 x17 ^2 - 86 x17 * x18 + 38 x17 * x20 - 78 x17 * x21
   - 76 x17 * x22 - 98 x17 * x23 + 20 x17 * x24 + 80 x17 * x26
   + 46 x17 * x27 - 64 x17 * x28 + 18 x17 * x29 - 47 x18 ^2 + 24 x18 * x19
   + 80 x18 * x21 - 38 x18 * x22 - 52 x18 * x23 - 10 x18 * x25
   + 20 x18 * x28 - 26 x19 ^2 - 58 x19 * x23 - 94 x19 * x24 - 36 x19 * x25
   + 4 x19 * x26 + 82 x19 * x27 + 6 x19 * x28 - 64 x19 * x29 - 33 x20 ^2
   - 90 x20 * x21 - 24 x20 * x23 - 74 x20 * x24 - 96 x20 * x27
   + 88 x20 * x28 + 30 x20 * x29 - 43 x21 ^2 + 80 x21 * x22 + 4 x21 * x23
   - 66 x21 * x24 - 64 x21 * x25 - 48 x21 * x27 + 78 x21 * x29 - 20 x22 ^2
   + 6 x22 * x25 + 96 x22 * x26 - 38 x22 * x28 - 26 x23 ^2 + 22 x23 * x24
   - 74 x23 * x25 - 56 x23 * x26 - 52 x23 * x27 - 86 x23 * x29
   + 98 x24 * x25 - 44 x24 * x26 + 88 x24 * x27 + 50 x24 * x28
   + 70 x25 * x26 + 80 x25 * x27 + 72 x25 * x28 + 14 x25 * x29 + 17 x26 ^2
   + 20 x26 * x27 - 10 x26 * x28 - 22 x26 * x29 - 31 x27 ^2 + 30 x27 * x29
   + 41 x29 ^2 ] / 2 
Subject To
Bounds
 x0 <= 1
 x1 <= 1
 x2 <= 1
 x3 <= 1
 x4 <= 1
 x5 <= 1
 x6 <= 1
 x7 <= 1
 x8 <= 1
 x9 <= 1
 x10 <= 1
 x11 <= 1
 x12 <= 1
 x13 <= 1
 x14 <= 1
 x15 <= 1
 x16 <= 1
 x17 <= 1
 x18 <= 1
 x19 <= 1
 x20 <= 1
 x21 <= 1
 x22 <= 1
 x23 <= 1
 x24 <= 1
 x25 <= 1
 x26 <= 1
 x27 <= 1
 x28 <= 1
 x29 <= 1
End
